c nIsolatedPIs 0
c maxPI 32
p cnf 237 616
c gate 33 8 24 0
8 -33 0
24 -33 0
-8 -24 33 0
c gate 34 -8 -24 0
-8 -34 0
-24 -34 0
8 24 34 0
c gate 35 -33 -34 0
-33 -35 0
-34 -35 0
33 34 35 0
c gate 36 7 -23 0
7 -36 0
-23 -36 0
-7 23 36 0
c gate 37 6 -22 0
6 -37 0
-22 -37 0
-6 22 37 0
c gate 38 -2 18 0
-2 -38 0
18 -38 0
2 -18 38 0
c gate 39 -1 17 0
-1 -39 0
17 -39 0
1 -17 39 0
c gate 40 -38 -39 0
-38 -40 0
-39 -40 0
38 39 40 0
c gate 41 2 -18 0
2 -41 0
-18 -41 0
-2 18 41 0
c gate 42 3 -19 0
3 -42 0
-19 -42 0
-3 19 42 0
c gate 43 -41 -42 0
-41 -43 0
-42 -43 0
41 42 43 0
c gate 44 -40 43 0
-40 -44 0
43 -44 0
40 -43 44 0
c gate 45 -4 20 0
-4 -45 0
20 -45 0
4 -20 45 0
c gate 46 -3 19 0
-3 -46 0
19 -46 0
3 -19 46 0
c gate 47 -45 -46 0
-45 -47 0
-46 -47 0
45 46 47 0
c gate 48 -44 47 0
-44 -48 0
47 -48 0
44 -47 48 0
c gate 49 5 -21 0
5 -49 0
-21 -49 0
-5 21 49 0
c gate 50 4 -20 0
4 -50 0
-20 -50 0
-4 20 50 0
c gate 51 -49 -50 0
-49 -51 0
-50 -51 0
49 50 51 0
c gate 52 -48 51 0
-48 -52 0
51 -52 0
48 -51 52 0
c gate 53 -5 21 0
-5 -53 0
21 -53 0
5 -21 53 0
c gate 54 -6 22 0
-6 -54 0
22 -54 0
6 -22 54 0
c gate 55 -37 -54 0
-37 -55 0
-54 -55 0
37 54 55 0
c gate 56 -53 55 0
-53 -56 0
55 -56 0
53 -55 56 0
c gate 57 -52 56 0
-52 -57 0
56 -57 0
52 -56 57 0
c gate 58 -37 -57 0
-37 -58 0
-57 -58 0
37 57 58 0
c gate 59 -7 23 0
-7 -59 0
23 -59 0
7 -23 59 0
c gate 60 -36 -59 0
-36 -60 0
-59 -60 0
36 59 60 0
c gate 61 -58 60 0
-58 -61 0
60 -61 0
58 -60 61 0
c gate 62 -36 -61 0
-36 -62 0
-61 -62 0
36 61 62 0
c gate 63 -35 -62 0
-35 -63 0
-62 -63 0
35 62 63 0
c gate 64 -11 -27 0
-11 -64 0
-27 -64 0
11 27 64 0
c gate 65 11 27 0
11 -65 0
27 -65 0
-11 -27 65 0
c gate 66 -64 -65 0
-64 -66 0
-65 -66 0
64 65 66 0
c gate 67 -10 26 0
-10 -67 0
26 -67 0
10 -26 67 0
c gate 68 -10 -26 0
-10 -68 0
-26 -68 0
10 26 68 0
c gate 69 10 26 0
10 -69 0
26 -69 0
-10 -26 69 0
c gate 70 -68 -69 0
-68 -70 0
-69 -70 0
68 69 70 0
c gate 71 -9 25 0
-9 -71 0
25 -71 0
9 -25 71 0
c gate 72 8 -24 0
8 -72 0
-24 -72 0
-8 24 72 0
c gate 73 9 -25 0
9 -73 0
-25 -73 0
-9 25 73 0
c gate 74 -72 -73 0
-72 -74 0
-73 -74 0
72 73 74 0
c gate 75 -63 74 0
-63 -75 0
74 -75 0
63 -74 75 0
c gate 76 -71 -75 0
-71 -76 0
-75 -76 0
71 75 76 0
c gate 77 -70 -76 0
-70 -77 0
-76 -77 0
70 76 77 0
c gate 78 -67 -77 0
-67 -78 0
-77 -78 0
67 77 78 0
c gate 79 -66 -78 0
-66 -79 0
-78 -79 0
66 78 79 0
c gate 80 16 32 0
16 -80 0
32 -80 0
-16 -32 80 0
c gate 81 -16 -32 0
-16 -81 0
-32 -81 0
16 32 81 0
c gate 82 -80 -81 0
-80 -82 0
-81 -82 0
80 81 82 0
c gate 83 -15 -31 0
-15 -83 0
-31 -83 0
15 31 83 0
c gate 84 15 31 0
15 -84 0
31 -84 0
-15 -31 84 0
c gate 85 -83 -84 0
-83 -85 0
-84 -85 0
83 84 85 0
c gate 86 -82 -85 0
-82 -86 0
-85 -86 0
82 85 86 0
c gate 87 -13 -29 0
-13 -87 0
-29 -87 0
13 29 87 0
c gate 88 13 29 0
13 -88 0
29 -88 0
-13 -29 88 0
c gate 89 -87 -88 0
-87 -89 0
-88 -89 0
87 88 89 0
c gate 90 -14 -30 0
-14 -90 0
-30 -90 0
14 30 90 0
c gate 91 14 30 0
14 -91 0
30 -91 0
-14 -30 91 0
c gate 92 -90 -91 0
-90 -92 0
-91 -92 0
90 91 92 0
c gate 93 12 28 0
12 -93 0
28 -93 0
-12 -28 93 0
c gate 94 -12 -28 0
-12 -94 0
-28 -94 0
12 28 94 0
c gate 95 -93 -94 0
-93 -95 0
-94 -95 0
93 94 95 0
c gate 96 -92 -95 0
-92 -96 0
-95 -96 0
92 95 96 0
c gate 97 -89 96 0
-89 -97 0
96 -97 0
89 -96 97 0
c gate 98 86 97 0
86 -98 0
97 -98 0
-86 -97 98 0
c gate 99 79 98 0
79 -99 0
98 -99 0
-79 -98 99 0
c gate 100 10 -26 0
10 -100 0
-26 -100 0
-10 26 100 0
c gate 101 -70 -74 0
-70 -101 0
-74 -101 0
70 74 101 0
c gate 102 -100 -101 0
-100 -102 0
-101 -102 0
100 101 102 0
c gate 103 66 -102 0
66 -103 0
-102 -103 0
-66 102 103 0
c gate 104 66 78 0
66 -104 0
78 -104 0
-66 -78 104 0
c gate 105 -79 -104 0
-79 -105 0
-104 -105 0
79 104 105 0
c gate 106 -103 -105 0
-103 -106 0
-105 -106 0
103 105 106 0
c gate 107 70 74 0
70 -107 0
74 -107 0
-70 -74 107 0
c gate 108 -101 -107 0
-101 -108 0
-107 -108 0
101 107 108 0
c gate 109 70 76 0
70 -109 0
76 -109 0
-70 -76 109 0
c gate 110 -77 -109 0
-77 -110 0
-109 -110 0
77 109 110 0
c gate 111 -108 -110 0
-108 -111 0
-110 -111 0
108 110 111 0
c gate 112 108 110 0
108 -112 0
110 -112 0
-108 -110 112 0
c gate 113 -6 -22 0
-6 -113 0
-22 -113 0
6 22 113 0
c gate 114 4 20 0
4 -114 0
20 -114 0
-4 -20 114 0
c gate 115 3 19 0
3 -115 0
19 -115 0
-3 -19 115 0
c gate 116 1 17 0
1 -116 0
17 -116 0
-1 -17 116 0
c gate 117 2 18 0
2 -117 0
18 -117 0
-2 -18 117 0
c gate 118 -116 -117 0
-116 -118 0
-117 -118 0
116 117 118 0
c gate 119 -115 118 0
-115 -119 0
118 -119 0
115 -118 119 0
c gate 120 -45 -50 0
-45 -120 0
-50 -120 0
45 50 120 0
c gate 121 -3 -19 0
-3 -121 0
-19 -121 0
3 19 121 0
c gate 122 -120 -121 0
-120 -122 0
-121 -122 0
120 121 122 0
c gate 123 -119 122 0
-119 -123 0
122 -123 0
119 -122 123 0
c gate 124 -114 -123 0
-114 -124 0
-123 -124 0
114 123 124 0
c gate 125 -49 -53 0
-49 -125 0
-53 -125 0
49 53 125 0
c gate 126 -124 -125 0
-124 -126 0
-125 -126 0
124 125 126 0
c gate 127 -38 116 0
-38 -127 0
116 -127 0
38 -116 127 0
c gate 128 -2 127 0
-2 -128 0
127 -128 0
2 -127 128 0
c gate 129 -115 128 0
-115 -129 0
128 -129 0
115 -128 129 0
c gate 130 123 129 0
123 -130 0
129 -130 0
-123 -129 130 0
c gate 131 126 -130 0
126 -131 0
-130 -131 0
-126 130 131 0
c gate 132 5 21 0
5 -132 0
21 -132 0
-5 -21 132 0
c gate 133 -55 -132 0
-55 -133 0
-132 -133 0
55 132 133 0
c gate 134 -131 133 0
-131 -134 0
133 -134 0
131 -133 134 0
c gate 135 -113 -134 0
-113 -135 0
-134 -135 0
113 134 135 0
c gate 136 -60 -135 0
-60 -136 0
-135 -136 0
60 135 136 0
c gate 137 35 136 0
35 -137 0
136 -137 0
-35 -136 137 0
c gate 138 -7 -23 0
-7 -138 0
-23 -138 0
7 23 138 0
c gate 139 -33 138 0
-33 -139 0
138 -139 0
33 -138 139 0
c gate 140 -9 -25 0
-9 -140 0
-25 -140 0
9 25 140 0
c gate 141 -34 -140 0
-34 -141 0
-140 -141 0
34 140 141 0
c gate 142 -139 141 0
-139 -142 0
141 -142 0
139 -141 142 0
c gate 143 -137 142 0
-137 -143 0
142 -143 0
137 -142 143 0
c gate 144 9 25 0
9 -144 0
25 -144 0
-9 -25 144 0
c gate 145 -69 -144 0
-69 -145 0
-144 -145 0
69 144 145 0
c gate 146 -143 145 0
-143 -146 0
145 -146 0
143 -145 146 0
c gate 147 -68 -146 0
-68 -147 0
-146 -147 0
68 146 147 0
c gate 148 -65 -147 0
-65 -148 0
-147 -148 0
65 147 148 0
c gate 149 -64 -148 0
-64 -149 0
-148 -149 0
64 148 149 0
c gate 150 -94 149 0
-94 -150 0
149 -150 0
94 -149 150 0
c gate 151 -93 -150 0
-93 -151 0
-150 -151 0
93 150 151 0
c gate 152 -89 -151 0
-89 -152 0
-151 -152 0
89 151 152 0
c gate 153 -93 150 0
-93 -153 0
150 -153 0
93 -150 153 0
c gate 154 89 153 0
89 -154 0
153 -154 0
-89 -153 154 0
c gate 155 -152 -154 0
-152 -155 0
-154 -155 0
152 154 155 0
c gate 156 -134 -136 0
-134 -156 0
-136 -156 0
134 136 156 0
c gate 157 116 117 0
116 -157 0
117 -157 0
-116 -117 157 0
c gate 158 156 157 0
156 -158 0
157 -158 0
-156 -157 158 0
c gate 159 -137 -158 0
-137 -159 0
-158 -159 0
137 158 159 0
c gate 160 155 159 0
155 -160 0
159 -160 0
-155 -159 160 0
c gate 161 -142 145 0
-142 -161 0
145 -161 0
142 -145 161 0
c gate 162 -64 -68 0
-64 -162 0
-68 -162 0
64 68 162 0
c gate 163 95 162 0
95 -163 0
162 -163 0
-95 -162 163 0
c gate 164 -161 163 0
-161 -164 0
163 -164 0
161 -163 164 0
c gate 165 -149 164 0
-149 -165 0
164 -165 0
149 -164 165 0
c gate 166 137 -165 0
137 -166 0
-165 -166 0
-137 165 166 0
c gate 167 155 -166 0
155 -167 0
-166 -167 0
-155 166 167 0
c gate 168 -88 -93 0
-88 -168 0
-93 -168 0
88 93 168 0
c gate 169 -150 168 0
-150 -169 0
168 -169 0
150 -168 169 0
c gate 170 -87 -169 0
-87 -170 0
-169 -170 0
87 169 170 0
c gate 171 -91 -170 0
-91 -171 0
-170 -171 0
91 170 171 0
c gate 172 -90 -171 0
-90 -172 0
-171 -172 0
90 171 172 0
c gate 173 -84 -172 0
-84 -173 0
-172 -173 0
84 172 173 0
c gate 174 -83 -173 0
-83 -174 0
-173 -174 0
83 173 174 0
c gate 175 82 -174 0
82 -175 0
-174 -175 0
-82 174 175 0
c gate 176 -82 174 0
-82 -176 0
174 -176 0
82 -174 176 0
c gate 177 -175 -176 0
-175 -177 0
-176 -177 0
175 176 177 0
c gate 178 92 -168 0
92 -178 0
-168 -178 0
-92 168 178 0
c gate 179 -91 -178 0
-91 -179 0
-178 -179 0
91 178 179 0
c gate 180 -85 179 0
-85 -180 0
179 -180 0
85 -179 180 0
c gate 181 172 180 0
172 -181 0
180 -181 0
-172 -180 181 0
c gate 182 -92 168 0
-92 -182 0
168 -182 0
92 -168 182 0
c gate 183 87 93 0
87 -183 0
93 -183 0
-87 -93 183 0
c gate 184 -154 -183 0
-154 -184 0
-183 -184 0
154 183 184 0
c gate 185 -182 -184 0
-182 -185 0
-184 -185 0
182 184 185 0
c gate 186 -155 -185 0
-155 -186 0
-185 -186 0
155 185 186 0
c gate 187 85 178 0
85 -187 0
178 -187 0
-85 -178 187 0
c gate 188 171 187 0
171 -188 0
187 -188 0
-171 -187 188 0
c gate 189 -186 -188 0
-186 -189 0
-188 -189 0
186 188 189 0
c gate 190 -181 189 0
-181 -190 0
189 -190 0
181 -189 190 0
c gate 191 -177 -190 0
-177 -191 0
-190 -191 0
177 190 191 0
c gate 192 177 190 0
177 -192 0
190 -192 0
-177 -190 192 0
c gate 193 -83 -179 0
-83 -193 0
-179 -193 0
83 179 193 0
c gate 194 -84 -193 0
-84 -194 0
-193 -194 0
84 193 194 0
c gate 195 82 194 0
82 -195 0
194 -195 0
-82 -194 195 0
c gate 196 -82 -194 0
-82 -196 0
-194 -196 0
82 194 196 0
c gate 197 -195 -196 0
-195 -197 0
-196 -197 0
195 196 197 0
c gate 198 -192 197 0
-192 -198 0
197 -198 0
192 -197 198 0
c gate 199 -191 -198 0
-191 -199 0
-198 -199 0
191 198 199 0
c gate 200 -167 199 0
-167 -200 0
199 -200 0
167 -199 200 0
c gate 201 -160 -200 0
-160 -201 0
-200 -201 0
160 200 201 0
c gate 202 174 195 0
174 -202 0
195 -202 0
-174 -195 202 0
c gate 203 -57 -202 0
-57 -203 0
-202 -203 0
57 202 203 0
c gate 204 201 203 0
201 -204 0
203 -204 0
-201 -203 204 0
c gate 205 57 -60 0
57 -205 0
-60 -205 0
-57 60 205 0
c gate 206 -57 -80 0
-57 -206 0
-80 -206 0
57 80 206 0
c gate 207 -195 206 0
-195 -207 0
206 -207 0
195 -206 207 0
c gate 208 175 207 0
175 -208 0
207 -208 0
-175 -207 208 0
c gate 209 -205 -208 0
-205 -209 0
-208 -209 0
205 208 209 0
c gate 210 -204 209 0
-204 -210 0
209 -210 0
204 -209 210 0
c gate 211 -63 -210 0
-63 -211 0
-210 -211 0
63 210 211 0
c gate 212 35 61 0
35 -212 0
61 -212 0
-35 -61 212 0
c gate 213 -140 -144 0
-140 -213 0
-144 -213 0
140 144 213 0
c gate 214 63 213 0
63 -214 0
213 -214 0
-63 -213 214 0
c gate 215 -212 -214 0
-212 -215 0
-214 -215 0
212 214 215 0
c gate 216 -211 215 0
-211 -216 0
215 -216 0
211 -215 216 0
c gate 217 -112 -216 0
-112 -217 0
-216 -217 0
112 216 217 0
c gate 218 -111 -217 0
-111 -218 0
-217 -218 0
111 217 218 0
c gate 219 -106 218 0
-106 -219 0
218 -219 0
106 -218 219 0
c gate 220 -78 103 0
-78 -220 0
103 -220 0
78 -103 220 0
c gate 221 -79 -220 0
-79 -221 0
-220 -221 0
79 220 221 0
c gate 222 -219 221 0
-219 -222 0
221 -222 0
219 -221 222 0
c gate 223 -99 -222 0
-99 -223 0
-222 -223 0
99 222 223 0
c gate 224 63 -223 0
63 -224 0
-223 -224 0
-63 223 224 0
c gate 225 -216 223 0
-216 -225 0
223 -225 0
216 -223 225 0
c gate 226 -128 156 0
-128 -226 0
156 -226 0
128 -156 226 0
c gate 227 -165 -226 0
-165 -227 0
-226 -227 0
165 226 227 0
c gate 228 155 -227 0
155 -228 0
-227 -228 0
-155 227 228 0
c gate 229 199 -228 0
199 -229 0
-228 -229 0
-199 228 229 0
c gate 230 203 -229 0
203 -230 0
-229 -230 0
-203 229 230 0
c gate 231 209 -230 0
209 -231 0
-230 -231 0
-209 230 231 0
c gate 232 -223 231 0
-223 -232 0
231 -232 0
223 -231 232 0
c gate 233 -224 -232 0
-224 -233 0
-232 -233 0
224 232 233 0
c gate 234 215 -233 0
215 -234 0
-233 -234 0
-215 233 234 0
c gate 235 -225 -234 0
-225 -235 0
-234 -235 0
225 234 235 0
c gate 236 -63 235 0
-63 -236 0
235 -236 0
63 -235 236 0
c gate 237 -224 -236 0
-224 -237 0
-236 -237 0
224 236 237 0
c PO
237 0
